p cnf 31
-2 -20 0
-4 -22 0
-6 14 0
-8 -2 0
-8 -4 0
2 4 8 0
-10 -6 0
-10 8 0
6 -8 10 0
-12 2 0
-12 -4 0
-2 4 12 0
-14 2 0
-14 4 0
-2 -4 14 0
-16 -2 0
-16 4 0
2 -4 16 0
-18 -12 0
-18 -16 0
12 16 18 0
-20 -10 0
-20 18 0
10 -18 20 0
-22 -6 0
-22 -12 0
6 12 22 0
-24 2 0
-24 6 0
-2 -6 24 0
24 0
